language ESSENCE' 1.0

letting fixed be 
[
    [0,0,7,0,8,3,6,0,0],
    [0,3,9,7,0,6,8,0,0],
    [8,2,6,4,1,9,7,5,3],
    [6,4,0,1,9,0,3,8,7],
    [0,8,0,3,6,7,0,0,0],
    [0,7,3,0,4,8,0,6,0],
    [3,9,0,8,7,0,0,2,6],
    [7,6,4,9,0,0,1,3,8],
    [2,0,8,6,3,0,9,7,0]
]